branch-and-cut/resultados/I080/i080-112.sol
1885
11
37 42
46 8
46 4
1 37
46 42
11 3
11 6
37 5
37 11
2 11
37 7
